instances/in_30_15_10_4.lp
#const n = 30.
#const k = 15.
#const h = 10.
tile(1,7,4).
tile(2,2,9).
tile(3,1,2).
tile(4,1,13).
tile(5,5,3).
tile(6,7,7).
tile(7,1,12).
tile(8,10,9).
tile(9,14,7).
tile(10,13,8).
tile(11,8,1).
tile(12,10,9).
tile(13,10,12).
tile(14,13,9).
tile(15,6,15).
tile(16,1,8).
tile(17,15,13).
tile(18,10,6).
tile(19,12,11).
tile(20,12,6).
tile(21,12,2).
tile(22,7,15).
tile(23,9,13).
tile(24,7,6).
tile(25,8,13).
tile(26,1,8).
tile(27,3,6).
tile(28,9,8).
tile(29,2,5).
tile(30,8,4).
