minizinc/input/in_30_15_10_4.dzn
n = 30;
k = 15;
h = 10;
tiles = array2d(1..n, 1..2,
[ 7,4
, 2,9
, 1,2
, 1,13
, 5,3
, 7,7
, 1,12
, 10,9
, 14,7
, 13,8
, 8,1
, 10,9
, 10,12
, 13,9
, 6,15
, 1,8
, 15,13
, 10,6
, 12,11
, 12,6
, 12,2
, 7,15
, 9,13
, 7,6
, 8,13
, 1,8
, 3,6
, 9,8
, 2,5
, 8,4
]);